
630.0
630.0
900.0
630.0
630.0
630.0
630.0
630.0
630.0
630.0
630.0
630.0
630.0
630.0
630.0
630.0
630.0
630.0
630.0
630.0
630.0
630.0
630.0
1050.0
630.0
630.0
630.0
630.0
630.0
630.0
630.0
630.0
630.0
630.0
630.0
630.0
630.0
630.0
690.0
720.0
630.0
630.0
630.0
630.0
630.0
630.0
630.0
630.0
630.0
630.0
630.0
630.0
630.0
630.0
630.0
630.0
630.0
630.0
630.0
630.0
630.0
630.0
630.0
630.0
630.0
930.0
630.0
630.0
630.0
630.0
840.0
630.0
630.0
630.0
630.0
630.0
630.0
630.0
630.0
630.0